p tw 42 84
1 2
1 8
2 3
2 9
3 4
3 10
4 5
4 11
5 6
5 12
6 7
6 13
7 1
7 14
8 9
8 15
9 10
9 16
10 11
10 17
11 12
11 18
12 13
12 19
13 14
13 20
14 8
14 21
15 16
15 22
16 17
16 23
17 18
17 24
18 19
18 25
19 20
19 26
20 21
20 27
21 15
21 28
22 23
22 29
23 24
23 30
24 25
24 31
25 26
25 32
26 27
26 33
27 28
27 34
28 22
28 35
29 30
29 36
30 31
30 37
31 32
31 38
32 33
32 39
33 34
33 40
34 35
34 41
35 29
35 42
36 37
36 1
37 38
37 2
38 39
38 3
39 40
39 4
40 41
40 5
41 42
41 6
42 36
42 7
